language ESSENCE' 1.0
letting nrows be 2
letting ncols be 4

letting nrobots be 2
letting robot_pos be [[1, 1],
                      [2, 1]]

letting ntasks be 2
letting task_obj  be [1, 2]
letting task_dest be [[1, 4],
                      [2, 4]]

letting time_limit be 3

letting map be [[ 0, 1, 0, 0],
                [ 0, 2, 0, 0]]
